(set-logic QF_LRA)
(declare-fun X0 () Real )
(declare-fun Y0 () Real )
(declare-fun X1 () Real )
(declare-fun Y1 () Real )
(declare-fun X2 () Real )
(declare-fun Y2 () Real )
(declare-fun X3 () Real )
(declare-fun Y3 () Real )
(declare-fun X4 () Real )
(declare-fun Y4 () Real )
(declare-fun X5 () Real )
(declare-fun Y5 () Real )
(declare-fun X6 () Real )
(declare-fun Y6 () Real )
(declare-fun X7 () Real )
(declare-fun Y7 () Real )
(declare-fun X8 () Real )
(declare-fun Y8 () Real )
(declare-fun Z () Real )
(declare-fun k () Real )
(assert (let
(( $goal (>= Z k) ))
(let
((
$phi ( and 
( or ( <= ( + X0 51 ) X1 )  ( <= ( + X1 54 ) X0 )  ( <= ( + Y0 59 ) Y1 )  ( <= ( + Y1 44 ) Y0 )  )
( or ( <= ( + X0 51 ) X2 )  ( <= ( + X2 20 ) X0 )  ( <= ( + Y0 59 ) Y2 )  ( <= ( + Y2 50 ) Y0 )  )
( or ( <= ( + X0 51 ) X3 )  ( <= ( + X3 96 ) X0 )  ( <= ( + Y0 59 ) Y3 )  ( <= ( + Y3 40 ) Y0 )  )
( or ( <= ( + X0 51 ) X4 )  ( <= ( + X4 76 ) X0 )  ( <= ( + Y0 59 ) Y4 )  ( <= ( + Y4 66 ) Y0 )  )
( or ( <= ( + X0 51 ) X5 )  ( <= ( + X5 38 ) X0 )  ( <= ( + Y0 59 ) Y5 )  ( <= ( + Y5 28 ) Y0 )  )
( or ( <= ( + X0 51 ) X6 )  ( <= ( + X6 85 ) X0 )  ( <= ( + Y0 59 ) Y6 )  ( <= ( + Y6 14 ) Y0 )  )
( or ( <= ( + X0 51 ) X7 )  ( <= ( + X7 90 ) X0 )  ( <= ( + Y0 59 ) Y7 )  ( <= ( + Y7 13 ) Y0 )  )
( or ( <= ( + X0 51 ) X8 )  ( <= ( + X8 72 ) X0 )  ( <= ( + Y0 59 ) Y8 )  ( <= ( + Y8 27 ) Y0 )  )
( or ( <= ( + X1 54 ) X2 )  ( <= ( + X2 20 ) X1 )  ( <= ( + Y1 44 ) Y2 )  ( <= ( + Y2 50 ) Y1 )  )
( or ( <= ( + X1 54 ) X3 )  ( <= ( + X3 96 ) X1 )  ( <= ( + Y1 44 ) Y3 )  ( <= ( + Y3 40 ) Y1 )  )
( or ( <= ( + X1 54 ) X4 )  ( <= ( + X4 76 ) X1 )  ( <= ( + Y1 44 ) Y4 )  ( <= ( + Y4 66 ) Y1 )  )
( or ( <= ( + X1 54 ) X5 )  ( <= ( + X5 38 ) X1 )  ( <= ( + Y1 44 ) Y5 )  ( <= ( + Y5 28 ) Y1 )  )
( or ( <= ( + X1 54 ) X6 )  ( <= ( + X6 85 ) X1 )  ( <= ( + Y1 44 ) Y6 )  ( <= ( + Y6 14 ) Y1 )  )
( or ( <= ( + X1 54 ) X7 )  ( <= ( + X7 90 ) X1 )  ( <= ( + Y1 44 ) Y7 )  ( <= ( + Y7 13 ) Y1 )  )
( or ( <= ( + X1 54 ) X8 )  ( <= ( + X8 72 ) X1 )  ( <= ( + Y1 44 ) Y8 )  ( <= ( + Y8 27 ) Y1 )  )
( or ( <= ( + X2 20 ) X3 )  ( <= ( + X3 96 ) X2 )  ( <= ( + Y2 50 ) Y3 )  ( <= ( + Y3 40 ) Y2 )  )
( or ( <= ( + X2 20 ) X4 )  ( <= ( + X4 76 ) X2 )  ( <= ( + Y2 50 ) Y4 )  ( <= ( + Y4 66 ) Y2 )  )
( or ( <= ( + X2 20 ) X5 )  ( <= ( + X5 38 ) X2 )  ( <= ( + Y2 50 ) Y5 )  ( <= ( + Y5 28 ) Y2 )  )
( or ( <= ( + X2 20 ) X6 )  ( <= ( + X6 85 ) X2 )  ( <= ( + Y2 50 ) Y6 )  ( <= ( + Y6 14 ) Y2 )  )
( or ( <= ( + X2 20 ) X7 )  ( <= ( + X7 90 ) X2 )  ( <= ( + Y2 50 ) Y7 )  ( <= ( + Y7 13 ) Y2 )  )
( or ( <= ( + X2 20 ) X8 )  ( <= ( + X8 72 ) X2 )  ( <= ( + Y2 50 ) Y8 )  ( <= ( + Y8 27 ) Y2 )  )
( or ( <= ( + X3 96 ) X4 )  ( <= ( + X4 76 ) X3 )  ( <= ( + Y3 40 ) Y4 )  ( <= ( + Y4 66 ) Y3 )  )
( or ( <= ( + X3 96 ) X5 )  ( <= ( + X5 38 ) X3 )  ( <= ( + Y3 40 ) Y5 )  ( <= ( + Y5 28 ) Y3 )  )
( or ( <= ( + X3 96 ) X6 )  ( <= ( + X6 85 ) X3 )  ( <= ( + Y3 40 ) Y6 )  ( <= ( + Y6 14 ) Y3 )  )
( or ( <= ( + X3 96 ) X7 )  ( <= ( + X7 90 ) X3 )  ( <= ( + Y3 40 ) Y7 )  ( <= ( + Y7 13 ) Y3 )  )
( or ( <= ( + X3 96 ) X8 )  ( <= ( + X8 72 ) X3 )  ( <= ( + Y3 40 ) Y8 )  ( <= ( + Y8 27 ) Y3 )  )
( or ( <= ( + X4 76 ) X5 )  ( <= ( + X5 38 ) X4 )  ( <= ( + Y4 66 ) Y5 )  ( <= ( + Y5 28 ) Y4 )  )
( or ( <= ( + X4 76 ) X6 )  ( <= ( + X6 85 ) X4 )  ( <= ( + Y4 66 ) Y6 )  ( <= ( + Y6 14 ) Y4 )  )
( or ( <= ( + X4 76 ) X7 )  ( <= ( + X7 90 ) X4 )  ( <= ( + Y4 66 ) Y7 )  ( <= ( + Y7 13 ) Y4 )  )
( or ( <= ( + X4 76 ) X8 )  ( <= ( + X8 72 ) X4 )  ( <= ( + Y4 66 ) Y8 )  ( <= ( + Y8 27 ) Y4 )  )
( or ( <= ( + X5 38 ) X6 )  ( <= ( + X6 85 ) X5 )  ( <= ( + Y5 28 ) Y6 )  ( <= ( + Y6 14 ) Y5 )  )
( or ( <= ( + X5 38 ) X7 )  ( <= ( + X7 90 ) X5 )  ( <= ( + Y5 28 ) Y7 )  ( <= ( + Y7 13 ) Y5 )  )
( or ( <= ( + X5 38 ) X8 )  ( <= ( + X8 72 ) X5 )  ( <= ( + Y5 28 ) Y8 )  ( <= ( + Y8 27 ) Y5 )  )
( or ( <= ( + X6 85 ) X7 )  ( <= ( + X7 90 ) X6 )  ( <= ( + Y6 14 ) Y7 )  ( <= ( + Y7 13 ) Y6 )  )
( or ( <= ( + X6 85 ) X8 )  ( <= ( + X8 72 ) X6 )  ( <= ( + Y6 14 ) Y8 )  ( <= ( + Y8 27 ) Y6 )  )
( or ( <= ( + X7 90 ) X8 )  ( <= ( + X8 72 ) X7 )  ( <= ( + Y7 13 ) Y8 )  ( <= ( + Y8 27 ) Y7 )  )
( >= X0 0)
( <= ( + X0 51) Z)
( >= Y0 0)
( <= ( + Y0 59 ) 100)
( >= X1 0)
( <= ( + X1 54) Z)
( >= Y1 0)
( <= ( + Y1 44 ) 100)
( >= X2 0)
( <= ( + X2 20) Z)
( >= Y2 0)
( <= ( + Y2 50 ) 100)
( >= X3 0)
( <= ( + X3 96) Z)
( >= Y3 0)
( <= ( + Y3 40 ) 100)
( >= X4 0)
( <= ( + X4 76) Z)
( >= Y4 0)
( <= ( + Y4 66 ) 100)
( >= X5 0)
( <= ( + X5 38) Z)
( >= Y5 0)
( <= ( + Y5 28 ) 100)
( >= X6 0)
( <= ( + X6 85) Z)
( >= Y6 0)
( <= ( + Y6 14 ) 100)
( >= X7 0)
( <= ( + X7 90) Z)
( >= Y7 0)
( <= ( + Y7 13 ) 100)
( >= X8 0)
( <= ( + X8 72) Z)
( >= Y8 0)
( <= ( + Y8 27 ) 100)
) )
)(=> $phi $goal))))